HfNbTaTiZr                              
3.4
    0.990037305   -2.991216678   -0.997529535
   -3.988350886   -2.006798875    2.004783453
   -3.995474036    1.999339867   -6.036087089
   Hf   Nb   Ta   Ti   Zr
   48   48   48   48   48
D
    0.370785804    0.330159113    0.137143189
    0.370785804    0.330159113    0.637143189
    0.370785804    0.830159113    0.137143189
    0.370785804    0.830159113    0.637143189
    0.870785804    0.330159113    0.137143189
    0.870785804    0.330159113    0.637143189
    0.870785804    0.830159113    0.137143189
    0.870785804    0.830159113    0.637143189
    0.410346952    0.003371524    0.103473737
    0.410346952    0.003371524    0.603473737
    0.410346952    0.503371524    0.103473737
    0.410346952    0.503371524    0.603473737
    0.910346952    0.003371524    0.103473737
    0.910346952    0.003371524    0.603473737
    0.910346952    0.503371524    0.103473737
    0.910346952    0.503371524    0.603473737
    0.148120405    0.166286143    0.361774977
    0.148120405    0.166286143    0.861774977
    0.148120405    0.666286143    0.361774977
    0.148120405    0.666286143    0.861774977
    0.648120405    0.166286143    0.361774977
    0.648120405    0.166286143    0.861774977
    0.648120405    0.666286143    0.361774977
    0.648120405    0.666286143    0.861774977
    0.300011360    0.256597948    0.452571169
    0.300011360    0.256597948    0.952571169
    0.300011360    0.756597948    0.452571169
    0.300011360    0.756597948    0.952571169
    0.800011360    0.256597948    0.452571169
    0.800011360    0.256597948    0.952571169
    0.800011360    0.756597948    0.452571169
    0.800011360    0.756597948    0.952571169
    0.057465499    0.340357817    0.434902253
    0.057465499    0.340357817    0.934902253
    0.057465499    0.840357817    0.434902253
    0.057465499    0.840357817    0.934902253
    0.557465499    0.340357817    0.434902253
    0.557465499    0.340357817    0.934902253
    0.557465499    0.840357817    0.434902253
    0.557465499    0.840357817    0.934902253
    0.003590938    0.497290555    0.494466300
    0.003590938    0.497290555    0.994466300
    0.003590938    0.997290555    0.494466300
    0.003590938    0.997290555    0.994466300
    0.503590938    0.497290555    0.494466300
    0.503590938    0.497290555    0.994466300
    0.503590938    0.997290555    0.494466300
    0.503590938    0.997290555    0.994466300
    0.464576888    0.340886132    0.036607541
    0.464576888    0.340886132    0.536607541
    0.464576888    0.840886132    0.036607541
    0.464576888    0.840886132    0.536607541
    0.964576888    0.340886132    0.036607541
    0.964576888    0.340886132    0.536607541
    0.964576888    0.840886132    0.036607541
    0.964576888    0.840886132    0.536607541
    0.232414707    0.171021791    0.260364296
    0.232414707    0.171021791    0.760364296
    0.232414707    0.671021791    0.260364296
    0.232414707    0.671021791    0.760364296
    0.732414707    0.171021791    0.260364296
    0.732414707    0.171021791    0.760364296
    0.732414707    0.671021791    0.260364296
    0.732414707    0.671021791    0.760364296
    0.369812862    0.076990851    0.386348487
    0.369812862    0.076990851    0.886348487
    0.369812862    0.576990851    0.386348487
    0.369812862    0.576990851    0.886348487
    0.869812862    0.076990851    0.386348487
    0.869812862    0.076990851    0.886348487
    0.869812862    0.576990851    0.386348487
    0.869812862    0.576990851    0.886348487
    0.262365543    0.331677763    0.231137275
    0.262365543    0.331677763    0.731137275
    0.262365543    0.831677763    0.231137275
    0.262365543    0.831677763    0.731137275
    0.762365543    0.331677763    0.231137275
    0.762365543    0.331677763    0.731137275
    0.762365543    0.831677763    0.231137275
    0.762365543    0.831677763    0.731137275
    0.396433007    0.238568744    0.347734304
    0.396433007    0.238568744    0.847734304
    0.396433007    0.738568744    0.347734304
    0.396433007    0.738568744    0.847734304
    0.896433007    0.238568744    0.347734304
    0.896433007    0.238568744    0.847734304
    0.896433007    0.738568744    0.347734304
    0.896433007    0.738568744    0.847734304
    0.039046348    0.416414157    0.217041007
    0.039046348    0.416414157    0.717041007
    0.039046348    0.916414157    0.217041007
    0.039046348    0.916414157    0.717041007
    0.539046348    0.416414157    0.217041007
    0.539046348    0.416414157    0.717041007
    0.539046348    0.916414157    0.217041007
    0.539046348    0.916414157    0.717041007
    0.183293343    0.265383994    0.054202752
    0.183293343    0.265383994    0.554202752
    0.183293343    0.765383994    0.054202752
    0.183293343    0.765383994    0.554202752
    0.683293343    0.265383994    0.054202752
    0.683293343    0.265383994    0.554202752
    0.683293343    0.765383994    0.054202752
    0.683293343    0.765383994    0.554202752
    0.345068025    0.158095818    0.170122266
    0.345068025    0.158095818    0.670122266
    0.345068025    0.658095818    0.170122266
    0.345068025    0.658095818    0.670122266
    0.845068025    0.158095818    0.170122266
    0.845068025    0.158095818    0.670122266
    0.845068025    0.658095818    0.170122266
    0.845068025    0.658095818    0.670122266
    0.079859448    0.077447718    0.188840854
    0.079859448    0.077447718    0.688840854
    0.079859448    0.577447718    0.188840854
    0.079859448    0.577447718    0.688840854
    0.579859448    0.077447718    0.188840854
    0.579859448    0.077447718    0.688840854
    0.579859448    0.577447718    0.188840854
    0.579859448    0.577447718    0.688840854
    0.496292355    0.251894343    0.247239044
    0.496292355    0.251894343    0.747239044
    0.496292355    0.751894343    0.247239044
    0.496292355    0.751894343    0.747239044
    0.996292355    0.251894343    0.247239044
    0.996292355    0.251894343    0.747239044
    0.996292355    0.751894343    0.247239044
    0.996292355    0.751894343    0.747239044
    0.239897353    0.412750956    0.021251640
    0.239897353    0.412750956    0.521251640
    0.239897353    0.912750956    0.021251640
    0.239897353    0.912750956    0.521251640
    0.739897353    0.412750956    0.021251640
    0.739897353    0.412750956    0.521251640
    0.739897353    0.912750956    0.021251640
    0.739897353    0.912750956    0.521251640
    0.302011274    0.492936949    0.199201788
    0.302011274    0.492936949    0.699201788
    0.302011274    0.992936949    0.199201788
    0.302011274    0.992936949    0.699201788
    0.802011274    0.492936949    0.199201788
    0.802011274    0.492936949    0.699201788
    0.802011274    0.992936949    0.199201788
    0.802011274    0.992936949    0.699201788
    0.109832161    0.244232396    0.154423507
    0.109832161    0.244232396    0.654423507
    0.109832161    0.744232396    0.154423507
    0.109832161    0.744232396    0.654423507
    0.609832161    0.244232396    0.154423507
    0.609832161    0.244232396    0.654423507
    0.609832161    0.744232396    0.154423507
    0.609832161    0.744232396    0.654423507
    0.136240826    0.410718961    0.118390210
    0.136240826    0.410718961    0.618390210
    0.136240826    0.910718961    0.118390210
    0.136240826    0.910718961    0.618390210
    0.636240826    0.410718961    0.118390210
    0.636240826    0.410718961    0.618390210
    0.636240826    0.910718961    0.118390210
    0.636240826    0.910718961    0.618390210
    0.260882738    0.068609642    0.478522561
    0.260882738    0.068609642    0.978522561
    0.260882738    0.568609642    0.478522561
    0.260882738    0.568609642    0.978522561
    0.760882738    0.068609642    0.478522561
    0.760882738    0.068609642    0.978522561
    0.760882738    0.568609642    0.478522561
    0.760882738    0.568609642    0.978522561
    0.203095191    0.009228527    0.294002531
    0.203095191    0.009228527    0.794002531
    0.203095191    0.509228527    0.294002531
    0.203095191    0.509228527    0.794002531
    0.703095191    0.009228527    0.294002531
    0.703095191    0.009228527    0.794002531
    0.703095191    0.509228527    0.294002531
    0.703095191    0.509228527    0.794002531
    0.308705052    0.426377058    0.422017256
    0.308705052    0.426377058    0.922017256
    0.308705052    0.926377058    0.422017256
    0.308705052    0.926377058    0.922017256
    0.808705052    0.426377058    0.422017256
    0.808705052    0.426377058    0.922017256
    0.808705052    0.926377058    0.422017256
    0.808705052    0.926377058    0.922017256
    0.094933710    0.005627939    0.390292317
    0.094933710    0.005627939    0.890292317
    0.094933710    0.505627939    0.390292317
    0.094933710    0.505627939    0.890292317
    0.594933710    0.005627939    0.390292317
    0.594933710    0.005627939    0.890292317
    0.594933710    0.505627939    0.390292317
    0.594933710    0.505627939    0.890292317
    0.166870095    0.087671437    0.084993456
    0.166870095    0.087671437    0.584993456
    0.166870095    0.587671437    0.084993456
    0.166870095    0.587671437    0.584993456
    0.666870095    0.087671437    0.084993456
    0.666870095    0.087671437    0.584993456
    0.666870095    0.587671437    0.084993456
    0.666870095    0.587671437    0.584993456
    0.417784649    0.174634981    0.063539604
    0.417784649    0.174634981    0.563539604
    0.417784649    0.674634981    0.063539604
    0.417784649    0.674634981    0.563539604
    0.917784649    0.174634981    0.063539604
    0.917784649    0.174634981    0.563539604
    0.917784649    0.674634981    0.063539604
    0.917784649    0.674634981    0.563539604
    0.462695508    0.081005677    0.283045965
    0.462695508    0.081005677    0.783045965
    0.462695508    0.581005677    0.283045965
    0.462695508    0.581005677    0.783045965
    0.962695508    0.081005677    0.283045965
    0.962695508    0.081005677    0.783045965
    0.962695508    0.581005677    0.283045965
    0.962695508    0.581005677    0.783045965
    0.169574664    0.338036225    0.332365789
    0.169574664    0.338036225    0.832365789
    0.169574664    0.838036225    0.332365789
    0.169574664    0.838036225    0.832365789
    0.669574664    0.338036225    0.332365789
    0.669574664    0.338036225    0.832365789
    0.669574664    0.838036225    0.332365789
    0.669574664    0.838036225    0.832365789
    0.418783311    0.407739834    0.316774473
    0.418783311    0.407739834    0.816774473
    0.418783311    0.907739834    0.316774473
    0.418783311    0.907739834    0.816774473
    0.918783311    0.407739834    0.316774473
    0.918783311    0.407739834    0.816774473
    0.918783311    0.907739834    0.316774473
    0.918783311    0.907739834    0.816774473
    0.049209984    0.167985010    0.467209454
    0.049209984    0.167985010    0.967209454
    0.049209984    0.667985010    0.467209454
    0.049209984    0.667985010    0.967209454
    0.549209984    0.167985010    0.467209454
    0.549209984    0.167985010    0.967209454
    0.549209984    0.667985010    0.467209454
    0.549209984    0.667985010    0.967209454
