HfNbTaTiZr                              
   3.40000000000000     
     0.4950186527379934   -1.4956083392331838   -0.4987647676090211
    -1.9941754427670200   -1.0033994377260893    1.0023917264525533
    -1.9977370179950924    0.9996699334959880   -3.0180435443746272
   Hf   Nb   Ta   Ti   Zr
     6     6     6     6     6
Direct
  0.7415716074603179  0.6603182261341265  0.2742863776740638
  0.8206939042724380  0.0067430477305030  0.2069474745447562
  0.2962408094755086  0.3325722864182920  0.7235499548764144
  0.6000227207533250  0.5131958960194231  0.9051423377670466
  0.1149309986623937  0.6807156331693237  0.8698045050530339
  0.0071818766084715  0.9945811097025373  0.9889326000117062
  0.9291537750793675  0.6817722631075842  0.0732150825570293
  0.4648294131499275  0.3420435820786222  0.5207285915777105
  0.7396257247968768  0.1539817014608432  0.7726969744623132
  0.5247310856717943  0.6633555263937120  0.4622745490671764
  0.7928660138170548  0.4771374871850985  0.6954686076286246
  0.0780926955422962  0.8328283140141136  0.4340820132541029
  0.3665866866833719  0.5307679884846809  0.1084055049857972
  0.6901360500293776  0.3161916360394364  0.3402445311679634
  0.1597188956086616  0.1548954358097386  0.3776817080622183
  0.9925847099577758  0.5037886854720748  0.4944780879677454
  0.4797947069329648  0.8255019124867784  0.0425032792654987
  0.6040225487177462  0.9858738983113413  0.3984035754303862
  0.2196643211854668  0.4884647924808129  0.3088470130105085
  0.2724816524416359  0.8214379210228384  0.2367804197266721
  0.5217654755779765  0.1372192834031136  0.9570451220302488
  0.4061903812940186  0.0184570530131151  0.5880050628044239
  0.6174101032743287  0.8527541167772661  0.8440345117704889
  0.1898674194469915  0.0112558779044220  0.7805846333416837
  0.3337401896070711  0.1753428730064329  0.1699869122644602
  0.8355692989265016  0.3492699612783582  0.1270792082731260
  0.9253910155224583  0.1620113546768524  0.5660919292280695
  0.3391493289015809  0.6760724492685212  0.6647315783608482
  0.8375666229971659  0.8154796681282276  0.6335489452082653
  0.0984199676051079  0.3359700190217946  0.9344189086276380
 
  0.00000000E+00  0.00000000E+00  0.00000000E+00
  0.00000000E+00  0.00000000E+00  0.00000000E+00
  0.00000000E+00  0.00000000E+00  0.00000000E+00
  0.00000000E+00  0.00000000E+00  0.00000000E+00
  0.00000000E+00  0.00000000E+00  0.00000000E+00
  0.00000000E+00  0.00000000E+00  0.00000000E+00
  0.00000000E+00  0.00000000E+00  0.00000000E+00
  0.00000000E+00  0.00000000E+00  0.00000000E+00
  0.00000000E+00  0.00000000E+00  0.00000000E+00
  0.00000000E+00  0.00000000E+00  0.00000000E+00
  0.00000000E+00  0.00000000E+00  0.00000000E+00
  0.00000000E+00  0.00000000E+00  0.00000000E+00
  0.00000000E+00  0.00000000E+00  0.00000000E+00
  0.00000000E+00  0.00000000E+00  0.00000000E+00
  0.00000000E+00  0.00000000E+00  0.00000000E+00
  0.00000000E+00  0.00000000E+00  0.00000000E+00
  0.00000000E+00  0.00000000E+00  0.00000000E+00
  0.00000000E+00  0.00000000E+00  0.00000000E+00
  0.00000000E+00  0.00000000E+00  0.00000000E+00
  0.00000000E+00  0.00000000E+00  0.00000000E+00
  0.00000000E+00  0.00000000E+00  0.00000000E+00
  0.00000000E+00  0.00000000E+00  0.00000000E+00
  0.00000000E+00  0.00000000E+00  0.00000000E+00
  0.00000000E+00  0.00000000E+00  0.00000000E+00
  0.00000000E+00  0.00000000E+00  0.00000000E+00
  0.00000000E+00  0.00000000E+00  0.00000000E+00
  0.00000000E+00  0.00000000E+00  0.00000000E+00
  0.00000000E+00  0.00000000E+00  0.00000000E+00
  0.00000000E+00  0.00000000E+00  0.00000000E+00
  0.00000000E+00  0.00000000E+00  0.00000000E+00
